(set-info :smt-lib-version 2.6)
(set-logic ALL)
(set-info :source |
Benchmarks used in the followin paper:
Big proof engines as little proof engines: new results on rewrite-based satisfiability procedure
Alessandro Armando, Maria Paola Bonacina, Silvio Ranise, Stephan Schulz. 
PDPAR'05
http://www.ai.dist.unige.it/pdpar05/


|)
(set-info :category "crafted")
(set-info :status sat)

(declare-sort Element 0)
(declare-fun a_711 () (Seq Element))
(declare-fun a_713 () (Seq Element))
(declare-fun a_715 () (Seq Element))
(declare-fun a_717 () (Seq Element))
(declare-fun a_719 () (Seq Element))
(declare-fun a_721 () (Seq Element))
(declare-fun a_723 () (Seq Element))
(declare-fun a_725 () (Seq Element))
(declare-fun a_727 () (Seq Element))
(declare-fun a_729 () (Seq Element))
(declare-fun a_731 () (Seq Element))
(declare-fun a_733 () (Seq Element))
(declare-fun a_735 () (Seq Element))
(declare-fun a_737 () (Seq Element))
(declare-fun a_739 () (Seq Element))
(declare-fun a_741 () (Seq Element))
(declare-fun a_743 () (Seq Element))
(declare-fun a_745 () (Seq Element))
(declare-fun a_747 () (Seq Element))
(declare-fun a_748 () (Seq Element))
(declare-fun a_749 () (Seq Element))
(declare-fun a_750 () (Seq Element))
(declare-fun a_752 () (Seq Element))
(declare-fun a_754 () (Seq Element))
(declare-fun a_756 () (Seq Element))
(declare-fun a_758 () (Seq Element))
(declare-fun a_760 () (Seq Element))
(declare-fun a_762 () (Seq Element))
(declare-fun a_764 () (Seq Element))
(declare-fun a_766 () (Seq Element))
(declare-fun a_768 () (Seq Element))
(declare-fun a_770 () (Seq Element))
(declare-fun a_772 () (Seq Element))
(declare-fun a_774 () (Seq Element))
(declare-fun a_776 () (Seq Element))
(declare-fun a_778 () (Seq Element))
(declare-fun a_780 () (Seq Element))
(declare-fun a_782 () (Seq Element))
(declare-fun a_784 () (Seq Element))
(declare-fun a_786 () (Seq Element))
(declare-fun e_710 () Element)
(declare-fun e_712 () Element)
(declare-fun e_714 () Element)
(declare-fun e_716 () Element)
(declare-fun e_718 () Element)
(declare-fun e_720 () Element)
(declare-fun e_722 () Element)
(declare-fun e_724 () Element)
(declare-fun e_726 () Element)
(declare-fun e_728 () Element)
(declare-fun e_730 () Element)
(declare-fun e_732 () Element)
(declare-fun e_734 () Element)
(declare-fun e_736 () Element)
(declare-fun e_738 () Element)
(declare-fun e_740 () Element)
(declare-fun e_742 () Element)
(declare-fun e_744 () Element)
(declare-fun e_746 () Element)
(declare-fun e_751 () Element)
(declare-fun e_753 () Element)
(declare-fun e_755 () Element)
(declare-fun e_757 () Element)
(declare-fun e_759 () Element)
(declare-fun e_761 () Element)
(declare-fun e_763 () Element)
(declare-fun e_765 () Element)
(declare-fun e_767 () Element)
(declare-fun e_769 () Element)
(declare-fun e_771 () Element)
(declare-fun e_773 () Element)
(declare-fun e_775 () Element)
(declare-fun e_777 () Element)
(declare-fun e_779 () Element)
(declare-fun e_781 () Element)
(declare-fun e_783 () Element)
(declare-fun e_785 () Element)
(declare-fun a1 () (Seq Element))
(declare-fun i0 () Int)
(declare-fun i1 () Int)
(declare-fun i2 () Int)
(declare-fun i3 () Int)
(declare-fun i4 () Int)
(declare-fun i6 () Int)
(declare-fun i7 () Int)
(declare-fun i8 () Int)
(assert (= a_711 (seq.update a1 i0 (seq.unit e_710))))
(assert (= a_713 (seq.update a_711 i1 (seq.unit e_712))))
(assert (= a_715 (seq.update a_713 i4 (seq.unit e_714))))
(assert (= a_717 (seq.update a_715 i6 (seq.unit e_716))))
(assert (= a_719 (seq.update a_717 i1 (seq.unit e_718))))
(assert (= a_721 (seq.update a_719 i4 (seq.unit e_720))))
(assert (= a_723 (seq.update a_721 i0 (seq.unit e_722))))
(assert (= a_725 (seq.update a_723 i1 (seq.unit e_724))))
(assert (= a_727 (seq.update a_725 i7 (seq.unit e_726))))
(assert (= a_729 (seq.update a_727 i0 (seq.unit e_728))))
(assert (= a_731 (seq.update a_729 i2 (seq.unit e_730))))
(assert (= a_733 (seq.update a_731 i0 (seq.unit e_732))))
(assert (= a_735 (seq.update a_733 i8 (seq.unit e_734))))
(assert (= a_737 (seq.update a_735 i3 (seq.unit e_736))))
(assert (= a_739 (seq.update a_737 i6 (seq.unit e_738))))
(assert (= a_741 (seq.update a_739 i2 (seq.unit e_740))))
(assert (= a_743 (seq.update a_741 i2 (seq.unit e_742))))
(assert (= a_745 (seq.update a_743 i4 (seq.unit e_744))))
(assert (= a_747 (seq.update a_745 i3 (seq.unit e_746))))
(assert (= a_748 (seq.update a_747 i3 (seq.unit e_746))))
(assert (= a_749 (seq.update a1 i1 (seq.unit e_712))))
(assert (= a_750 (seq.update a_749 i0 (seq.unit e_710))))
(assert (= a_752 (seq.update a_750 i6 (seq.unit e_751))))
(assert (= a_754 (seq.update a_752 i4 (seq.unit e_753))))
(assert (= a_756 (seq.update a_754 i1 (seq.unit e_755))))
(assert (= a_758 (seq.update a_756 i4 (seq.unit e_757))))
(assert (= a_760 (seq.update a_758 i0 (seq.unit e_759))))
(assert (= a_762 (seq.update a_760 i1 (seq.unit e_761))))
(assert (= a_764 (seq.update a_762 i0 (seq.unit e_763))))
(assert (= a_766 (seq.update a_764 i7 (seq.unit e_765))))
(assert (= a_768 (seq.update a_766 i0 (seq.unit e_767))))
(assert (= a_770 (seq.update a_768 i2 (seq.unit e_769))))
(assert (= a_772 (seq.update a_770 i3 (seq.unit e_771))))
(assert (= a_774 (seq.update a_772 i8 (seq.unit e_773))))
(assert (= a_776 (seq.update a_774 i2 (seq.unit e_775))))
(assert (= a_778 (seq.update a_776 i6 (seq.unit e_777))))
(assert (= a_780 (seq.update a_778 i4 (seq.unit e_779))))
(assert (= a_782 (seq.update a_780 i2 (seq.unit e_781))))
(assert (= a_784 (seq.update a_782 i4 (seq.unit e_783))))
(assert (= a_786 (seq.update a_784 i3 (seq.unit e_785))))
(assert (= e_710 (seq.nth a1 i1)))
(assert (= e_712 (seq.nth a1 i0)))
(assert (= e_714 (seq.nth a_713 i6)))
(assert (= e_716 (seq.nth a_713 i4)))
(assert (= e_718 (seq.nth a_717 i4)))
(assert (= e_720 (seq.nth a_717 i1)))
(assert (= e_722 (seq.nth a_721 i1)))
(assert (= e_724 (seq.nth a_721 i0)))
(assert (= e_726 (seq.nth a_725 i0)))
(assert (= e_728 (seq.nth a_725 i7)))
(assert (= e_730 (seq.nth a_729 i0)))
(assert (= e_732 (seq.nth a_729 i2)))
(assert (= e_734 (seq.nth a_733 i3)))
(assert (= e_736 (seq.nth a_733 i8)))
(assert (= e_738 (seq.nth a_737 i2)))
(assert (= e_740 (seq.nth a_737 i6)))
(assert (= e_742 (seq.nth a_741 i4)))
(assert (= e_744 (seq.nth a_741 i2)))
(assert (= e_746 (seq.nth a_745 i3)))
(assert (= e_751 (seq.nth a_750 i4)))
(assert (= e_753 (seq.nth a_750 i6)))
(assert (= e_755 (seq.nth a_754 i4)))
(assert (= e_757 (seq.nth a_754 i1)))
(assert (= e_759 (seq.nth a_758 i1)))
(assert (= e_761 (seq.nth a_758 i0)))
(assert (= e_763 (seq.nth a_762 i7)))
(assert (= e_765 (seq.nth a_762 i0)))
(assert (= e_767 (seq.nth a_766 i2)))
(assert (= e_769 (seq.nth a_766 i0)))
(assert (= e_771 (seq.nth a_770 i8)))
(assert (= e_773 (seq.nth a_770 i3)))
(assert (= e_775 (seq.nth a_774 i6)))
(assert (= e_777 (seq.nth a_774 i2)))
(assert (= e_779 (seq.nth a_778 i2)))
(assert (= e_781 (seq.nth a_778 i4)))
(assert (= e_783 (seq.nth a_782 i3)))
(assert (= e_785 (seq.nth a_782 i4)))
(assert (not (= a_748 a_786)))
(check-sat)
(exit)
